<?xml version = "1.0" encoding="UTF-8" standalone="yes"?>
<CPLEXSolution version="1.2">
 <header
   problemName="testFile.lp"
   solutionName="incumbent"
   solutionIndex="-1"
   objectiveValue="40"
   solutionTypeValue="3"
   solutionTypeString="primal"
   solutionStatusValue="101"
   solutionStatusString="integer optimal solution"
   solutionMethodString="mip"
   primalFeasible="1"
   dualFeasible="1"
   MIPNodes="0"
   MIPIterations="0"
   writeLevel="1"/>
 <quality
   epInt="1.0000000000000001e-05"
   epRHS="9.9999999999999995e-07"
   maxIntInfeas="0"
   maxPrimalInfeas="0"
   maxX="100"
   maxSlack="199"/>
 <linearConstraints>
  <constraint name="c1" index="0" slack="0"/>
  <constraint name="c2" index="1" slack="0"/>
  <constraint name="c3" index="2" slack="0"/>
  <constraint name="c4" index="3" slack="0"/>
  <constraint name="c5" index="4" slack="-1"/>
  <constraint name="c6" index="5" slack="-1"/>
  <constraint name="c7" index="6" slack="-1"/>
  <constraint name="c8" index="7" slack="-1"/>
  <constraint name="c9" index="8" slack="0"/>
  <constraint name="c10" index="9" slack="0"/>
  <constraint name="c11" index="10" slack="0"/>
  <constraint name="c12" index="11" slack="0"/>
  <constraint name="c13" index="12" slack="0"/>
  <constraint name="c14" index="13" slack="0"/>
  <constraint name="c15" index="14" slack="-1"/>
  <constraint name="c16" index="15" slack="-1"/>
  <constraint name="c17" index="16" slack="0"/>
  <constraint name="c18" index="17" slack="0"/>
  <constraint name="c19" index="18" slack="0"/>
  <constraint name="c20" index="19" slack="0"/>
  <constraint name="c21" index="20" slack="0"/>
  <constraint name="c22" index="21" slack="0"/>
  <constraint name="c23" index="22" slack="0"/>
  <constraint name="c24" index="23" slack="0"/>
  <constraint name="c25" index="24" slack="0"/>
  <constraint name="c26" index="25" slack="0"/>
  <constraint name="c27" index="26" slack="0"/>
  <constraint name="c28" index="27" slack="0"/>
  <constraint name="c29" index="28" slack="0"/>
  <constraint name="c30" index="29" slack="0"/>
  <constraint name="c31" index="30" slack="0"/>
  <constraint name="c32" index="31" slack="0"/>
  <constraint name="c33" index="32" slack="0"/>
  <constraint name="c34" index="33" slack="0"/>
  <constraint name="c35" index="34" slack="0"/>
  <constraint name="c36" index="35" slack="0"/>
  <constraint name="c37" index="36" slack="1"/>
  <constraint name="c38" index="37" slack="0"/>
  <constraint name="c39" index="38" slack="0"/>
  <constraint name="c40" index="39" slack="0"/>
  <constraint name="c41" index="40" slack="0"/>
  <constraint name="c42" index="41" slack="1"/>
  <constraint name="c43" index="42" slack="0"/>
  <constraint name="c44" index="43" slack="0"/>
  <constraint name="c45" index="44" slack="0"/>
  <constraint name="c46" index="45" slack="0"/>
  <constraint name="c47" index="46" slack="0"/>
  <constraint name="c48" index="47" slack="0"/>
  <constraint name="c49" index="48" slack="0"/>
  <constraint name="c50" index="49" slack="0"/>
  <constraint name="c51" index="50" slack="0"/>
  <constraint name="c52" index="51" slack="0"/>
  <constraint name="c53" index="52" slack="0"/>
  <constraint name="c54" index="53" slack="0"/>
  <constraint name="c55" index="54" slack="0"/>
  <constraint name="c56" index="55" slack="0"/>
  <constraint name="c57" index="56" slack="0"/>
  <constraint name="c58" index="57" slack="0"/>
  <constraint name="c59" index="58" slack="0"/>
  <constraint name="c60" index="59" slack="0"/>
  <constraint name="c61" index="60" slack="101"/>
  <constraint name="c62" index="61" slack="199"/>
  <constraint name="c63" index="62" slack="199"/>
  <constraint name="c64" index="63" slack="101"/>
  <constraint name="c65" index="64" slack="98"/>
  <constraint name="c66" index="65" slack="98"/>
  <constraint name="c67" index="66" slack="0"/>
  <constraint name="c68" index="67" slack="98"/>
  <constraint name="c69" index="68" slack="98"/>
  <constraint name="c70" index="69" slack="0"/>
  <constraint name="c71" index="70" slack="199"/>
  <constraint name="c72" index="71" slack="199"/>
  <constraint name="c73" index="72" slack="0"/>
  <constraint name="c74" index="73" slack="0"/>
  <constraint name="c75" index="74" slack="0"/>
  <constraint name="c76" index="75" slack="0"/>
  <constraint name="c77" index="76" slack="100"/>
  <constraint name="c78" index="77" slack="100"/>
  <constraint name="c79" index="78" slack="100"/>
  <constraint name="c80" index="79" slack="100"/>
 </linearConstraints>
 <variables>
  <variable name="absDiff5_1" index="0" value="0"/>
  <variable name="absDiff6_1" index="1" value="0"/>
  <variable name="absDiff1_1" index="2" value="0"/>
  <variable name="absDiff2_1" index="3" value="0"/>
  <variable name="absDiff3_1" index="4" value="0"/>
  <variable name="absDiff4_1" index="5" value="0"/>
  <variable name="xb7_1" index="6" value="0"/>
  <variable name="xb8_1" index="7" value="0"/>
  <variable name="xb9_1" index="8" value="0"/>
  <variable name="xb10_1" index="9" value="0"/>
  <variable name="xb11_1" index="10" value="1"/>
  <variable name="xb12_1" index="11" value="0"/>
  <variable name="xb13_1" index="12" value="0"/>
  <variable name="xb14_1" index="13" value="1"/>
  <variable name="xb15_1" index="14" value="0"/>
  <variable name="xb16_1" index="15" value="1"/>
  <variable name="xb17_1" index="16" value="0"/>
  <variable name="xb18_1" index="17" value="1"/>
  <variable name="xb5_1" index="18" value="1"/>
  <variable name="xb6_1" index="19" value="-1"/>
  <variable name="xb19_1" index="20" value="0"/>
  <variable name="xb1_1" index="21" value="-1"/>
  <variable name="xb20_1" index="22" value="0"/>
  <variable name="xb2_1" index="23" value="-1"/>
  <variable name="xb21_1" index="24" value="0"/>
  <variable name="xb22_1" index="25" value="0"/>
  <variable name="xb3_1" index="26" value="1"/>
  <variable name="xb23_1" index="27" value="1"/>
  <variable name="xb4_1" index="28" value="-1"/>
  <variable name="xb24_1" index="29" value="1"/>
  <variable name="xb25_1" index="30" value="1"/>
  <variable name="xb26_1" index="31" value="1"/>
  <variable name="xb27_1" index="32" value="1"/>
  <variable name="xb28_1" index="33" value="1"/>
  <variable name="xb29_1" index="34" value="0"/>
  <variable name="xb30_1" index="35" value="0"/>
  <variable name="B_P1_1" index="36" value="-1"/>
  <variable name="B_TF1_1" index="37" value="-0"/>
  <variable name="B_P2_1" index="38" value="1"/>
  <variable name="B_TF2_1" index="39" value="-0"/>
  <variable name="B_G1_1" index="40" value="-0"/>
  <variable name="B_G2_1" index="41" value="-0"/>
  <variable name="dist_P1" index="42" value="0"/>
  <variable name="dist_TF1" index="43" value="1"/>
  <variable name="dist_G1" index="44" value="100"/>
  <variable name="dist_G2" index="45" value="100"/>
  <variable name="dist_P2" index="46" value="0"/>
  <variable name="dist_TF2" index="47" value="1"/>
  <variable name="dist_1" index="48" value="0"/>
  <variable name="dist_3" index="49" value="0"/>
  <variable name="dist_2" index="50" value="0"/>
  <variable name="dist_4" index="51" value="0"/>
 </variables>
</CPLEXSolution>
